c Random Network
p max    10      20
n         1  s
n        10  t
a       6       4      27
a       4       1      46
a       1       8      47
a       7       8      29
a       5       2      14
a       1      10      43
a       5       9      29
a       2       5      47
a       4       6      37
a       3       2      41
a       8       2      42
a       3       8      33
a       1       2      17
a       3       5      32
a       6       7      30
a       5       3       4
a       3       4      40
a       1       6      43
a       6       3      20
a       2       1      36
